(set-logic QF_SLIA)
(set-option :produce-models true)
(declare-const X String)
; Toolbar\x5Chome\/lordofsearchthis
(assert (not (str.in_re X (str.to_re "Toolbar\u{5c}home/lordofsearchthis\u{0a}"))))
; /^(\d{1,2})(\/)(\d{1,2})(\/)(\d{4})(T|\s{1,2})(([0-1][0-9])|(2[0-3])):([0-5][0-9])+$/;
(assert (str.in_re X (re.++ (str.to_re "/") ((_ re.loop 1 2) (re.range "0" "9")) (str.to_re "/") ((_ re.loop 1 2) (re.range "0" "9")) (str.to_re "/") ((_ re.loop 4 4) (re.range "0" "9")) (re.union (str.to_re "T") ((_ re.loop 1 2) (re.union (str.to_re " ") (str.to_re "\u{09}") (str.to_re "\u{0a}") (str.to_re "\u{0c}") (str.to_re "\u{0d}")))) (re.union (re.++ (re.range "0" "1") (re.range "0" "9")) (re.++ (str.to_re "2") (re.range "0" "3"))) (str.to_re ":") (re.+ (re.++ (re.range "0" "5") (re.range "0" "9"))) (str.to_re "/;\u{0a}"))))
; ^\s*[a-zA-Z0-9,\s]+\s*$
(assert (str.in_re X (re.++ (re.* (re.union (str.to_re " ") (str.to_re "\u{09}") (str.to_re "\u{0a}") (str.to_re "\u{0c}") (str.to_re "\u{0d}"))) (re.+ (re.union (re.range "a" "z") (re.range "A" "Z") (re.range "0" "9") (str.to_re ",") (str.to_re " ") (str.to_re "\u{09}") (str.to_re "\u{0a}") (str.to_re "\u{0c}") (str.to_re "\u{0d}"))) (re.* (re.union (str.to_re " ") (str.to_re "\u{09}") (str.to_re "\u{0a}") (str.to_re "\u{0c}") (str.to_re "\u{0d}"))) (str.to_re "\u{0a}"))))
; www\x2Eblazefind\x2Ecom.*started\x2E\s+CodeguruBrowserwww\x2Esogou\x2Ecom
(assert (str.in_re X (re.++ (str.to_re "www.blazefind.com") (re.* re.allchar) (str.to_re "started.") (re.+ (re.union (str.to_re " ") (str.to_re "\u{09}") (str.to_re "\u{0a}") (str.to_re "\u{0c}") (str.to_re "\u{0d}"))) (str.to_re "CodeguruBrowserwww.sogou.com\u{0a}"))))
; /filename\s*=\s*[^\r\n]*?\u{2e}ttf[\u{22}\u{27}\u{3b}\s\r\n]/i
(assert (not (str.in_re X (re.++ (str.to_re "/filename") (re.* (re.union (str.to_re " ") (str.to_re "\u{09}") (str.to_re "\u{0a}") (str.to_re "\u{0c}") (str.to_re "\u{0d}"))) (str.to_re "=") (re.* (re.union (str.to_re " ") (str.to_re "\u{09}") (str.to_re "\u{0a}") (str.to_re "\u{0c}") (str.to_re "\u{0d}"))) (re.* (re.union (str.to_re "\u{0d}") (str.to_re "\u{0a}"))) (str.to_re ".ttf") (re.union (str.to_re "\u{22}") (str.to_re "'") (str.to_re ";") (str.to_re "\u{0d}") (str.to_re "\u{0a}") (str.to_re " ") (str.to_re "\u{09}") (str.to_re "\u{0a}") (str.to_re "\u{0c}") (str.to_re "\u{0d}")) (str.to_re "/i\u{0a}")))))
(assert (> (str.len X) 10))
(check-sat)
